%chk=D:\CH3Cl.chk
# wb97xd/def2TZVP TD(nstates=50) IOp(9/40=4) nosymm

Opted at B3LYP/def2-TZVP level

0 1
 C                  0.00000000    0.00000000   -1.13395200
 H                  0.00000000    1.03085100   -1.47625800
 H                 -0.89274300   -0.51542600   -1.47625800
 H                  0.89274300   -0.51542600   -1.47625800
 Cl                 0.00000000    0.00000000    0.66073400

