# b3lyp/6-311+G(2df,p) out=wfn

sdf

0 2
H

D:\H.wfn

