%mem=20GB
%chk=C:\Users\sober\Desktop\SiH4.chk
%nprocshared=8
# b3lyp/6-311+G(2df,p) opt

Title Card Required

0 1
 Si                 0.00000000    0.00000000    0.00000000
 H                  0.00000000    0.00000000    1.46999997
 H                 -0.00000000   -1.38592926   -0.48999999
 H                 -1.20024995    0.69296463   -0.48999999
 H                  1.20024995    0.69296463   -0.48999999

 1 2 1.0 3 1.0 4 1.0 5 1.0
 2
 3
 4
 5

