! B3LYP TZVP TightSCF
%scf SmearTemp 9000 end
* xyz 0 1
 N                  0.00000000    0.52052500    0.00000000
 O                 -1.11224200    0.17830300    0.00000000
 O                  0.89150400   -0.61005400    0.00000000
 H                  1.76590000   -0.18966800    0.00000000
*
